data;
set WEIGHTS := x0 x1 x2 x3 x4 x5 x6 x7 x8 x9 x10 x11 x12 x13 x14 x15 x16 x17 x18 x19 x20 x21;
param:  cost :=
  x0  16963
  x1  870151
  x2  46121
  x3  215771
  x4  497134
  x5  887346
  x6  7469
  x7  988734
  x8  895510
  x9  782058
  x10  641395
  x11  204227
  x12  159007
  x13  502126
  x14  761290
  x15  428161
  x16  40919
  x17  984269
  x18  116028
  x19  615110
  x20  472973
  x21  370494;
param cap := 5500000;